NAME          
ROWS
 N  OBJ
 L  c3
 L  c4
 L  c5
 L  c6
 L  c7
 G  c1
 G  c2
COLUMNS
    ss[1]     c1        1
    ss[1]     OBJ       1000
    ss[2]     c2        1
    ss[2]     OBJ       1000
    s[1]      c3        1
    s[1]      OBJ       -1000
    s[2]      c4        1
    s[2]      OBJ       -1000
    s[3]      c5        1
    s[3]      OBJ       -1000
    s[4]      c6        1
    s[4]      OBJ       -1000
    s[5]      c7        1
    s[5]      OBJ       -1000
    MARKER    'MARKER'                 'INTORG'
    x[1]      c3        898
    x[1]      c4        703
    x[1]      c5        963
    x[1]      c6        399
    x[1]      c7        602
    x[1]      c1        556
    x[1]      c2        413
    x[1]      OBJ       -1208
    x[2]      c3        137
    x[2]      c4        58
    x[2]      c5        713
    x[2]      c6        635
    x[2]      c7        456
    x[2]      c1        125
    x[2]      c2        794
    x[2]      OBJ       -849
    x[3]      c3        865
    x[3]      c4        931
    x[3]      c5        946
    x[3]      c6        464
    x[3]      c7        541
    x[3]      c1        736
    x[3]      c2        494
    x[3]      OBJ       -1160
    x[4]      c3        892
    x[4]      c4        130
    x[4]      c5        429
    x[4]      c6        149
    x[4]      c7        474
    x[4]      c1        557
    x[4]      c2        821
    x[4]      OBJ       -316
    x[5]      c3        976
    x[5]      c4        191
    x[5]      c5        12
    x[5]      c6        36
    x[5]      c7        309
    x[5]      c1        301
    x[5]      c2        348
    x[5]      OBJ       -849
    x[6]      c3        857
    x[6]      c4        4
    x[6]      c5        560
    x[6]      c6        900
    x[6]      c7        123
    x[6]      c1        6
    x[6]      c2        961
    x[6]      OBJ       -1004
    x[7]      c3        353
    x[7]      c4        65
    x[7]      c5        317
    x[7]      c6        772
    x[7]      c7        233
    x[7]      c1        111
    x[7]      c2        63
    x[7]      OBJ       -1142
    x[8]      c3        15
    x[8]      c4        501
    x[8]      c5        138
    x[8]      c6        836
    x[8]      c7        358
    x[8]      c1        16
    x[8]      c2        962
    x[8]      OBJ       -816
    x[9]      c3        11
    x[9]      c4        240
    x[9]      c5        373
    x[9]      c6        188
    x[9]      c7        760
    x[9]      c1        704
    x[9]      c2        799
    x[9]      OBJ       -480
    x[10]     c3        215
    x[10]     c4        353
    x[10]     c5        871
    x[10]     c6        347
    x[10]     c7        843
    x[10]     c1        952
    x[10]     c2        242
    x[10]     OBJ       -914
    x[11]     c3        98
    x[11]     c4        211
    x[11]     c5        834
    x[11]     c6        808
    x[11]     c7        213
    x[11]     c1        408
    x[11]     c2        352
    x[11]     OBJ       -1060
    x[12]     c3        834
    x[12]     c4        598
    x[12]     c5        80
    x[12]     c6        864
    x[12]     c7        696
    x[12]     c1        492
    x[12]     c2        337
    x[12]     OBJ       -909
    x[13]     c3        43
    x[13]     c4        683
    x[13]     c5        296
    x[13]     c6        667
    x[13]     c7        772
    x[13]     c1        163
    x[13]     c2        111
    x[13]     OBJ       -1355
    x[14]     c3        374
    x[14]     c4        241
    x[14]     c5        102
    x[14]     c6        71
    x[14]     c7        742
    x[14]     c1        938
    x[14]     c2        559
    x[14]     OBJ       -470
    x[15]     c3        17
    x[15]     c4        112
    x[15]     c5        535
    x[15]     c6        451
    x[15]     c7        760
    x[15]     c1        315
    x[15]     c2        889
    x[15]     OBJ       -648
    x[16]     c3        371
    x[16]     c4        439
    x[16]     c5        999
    x[16]     c6        307
    x[16]     c7        664
    x[16]     c1        949
    x[16]     c2        595
    x[16]     OBJ       -688
    x[17]     c3        903
    x[17]     c4        593
    x[17]     c5        929
    x[17]     c6        326
    x[17]     c7        740
    x[17]     c1        670
    x[17]     c2        914
    x[17]     OBJ       -572
    x[18]     c3        227
    x[18]     c4        450
    x[18]     c5        136
    x[18]     c6        298
    x[18]     c7        108
    x[18]     c1        1000
    x[18]     c2        576
    x[18]     OBJ       -54
    x[19]     c3        661
    x[19]     c4        740
    x[19]     c5        951
    x[19]     c6        289
    x[19]     c7        998
    x[19]     c1        457
    x[19]     c2        312
    x[19]     OBJ       -1009
    x[20]     c3        296
    x[20]     c4        723
    x[20]     c5        951
    x[20]     c6        789
    x[20]     c7        482
    x[20]     c1        816
    x[20]     c2        323
    x[20]     OBJ       -667
    x[21]     c3        519
    x[21]     c4        387
    x[21]     c5        770
    x[21]     c6        424
    x[21]     c7        770
    x[21]     c1        357
    x[21]     c2        153
    x[21]     OBJ       -1045
    x[22]     c3        721
    x[22]     c4        245
    x[22]     c5        109
    x[22]     c6        338
    x[22]     c7        403
    x[22]     c1        495
    x[22]     c2        888
    x[22]     OBJ       -581
    x[23]     c3        111
    x[23]     c4        896
    x[23]     c5        198
    x[23]     c6        434
    x[23]     c7        465
    x[23]     c1        916
    x[23]     c2        287
    x[23]     OBJ       -433
    x[24]     c3        142
    x[24]     c4        28
    x[24]     c5        758
    x[24]     c6        206
    x[24]     c7        99
    x[24]     c1        852
    x[24]     c2        627
    x[24]     OBJ       -498
    x[25]     c3        513
    x[25]     c4        282
    x[25]     c5        78
    x[25]     c6        224
    x[25]     c7        784
    x[25]     c1        614
    x[25]     c2        888
    x[25]     OBJ       -579
    x[26]     c3        328
    x[26]     c4        785
    x[26]     c5        220
    x[26]     c6        29
    x[26]     c7        85
    x[26]     c1        161
    x[26]     c2        634
    x[26]     OBJ       -961
    x[27]     c3        983
    x[27]     c4        975
    x[27]     c5        569
    x[27]     c6        456
    x[27]     c7        679
    x[27]     c1        60
    x[27]     c2        424
    x[27]     OBJ       -1299
    x[28]     c3        89
    x[28]     c4        906
    x[28]     c5        890
    x[28]     c6        603
    x[28]     c7        147
    x[28]     c1        382
    x[28]     c2        365
    x[28]     OBJ       -872
    x[29]     c3        893
    x[29]     c4        350
    x[29]     c5        759
    x[29]     c6        975
    x[29]     c7        310
    x[29]     c1        373
    x[29]     c2        374
    x[29]     OBJ       -1132
    x[30]     c3        733
    x[30]     c4        712
    x[30]     c5        365
    x[30]     c6        938
    x[30]     c7        939
    x[30]     c1        570
    x[30]     c2        85
    x[30]     OBJ       -1169
    x[31]     c3        933
    x[31]     c4        268
    x[31]     c5        153
    x[31]     c6        734
    x[31]     c7        438
    x[31]     c1        182
    x[31]     c2        650
    x[31]     OBJ       -920
    x[32]     c3        642
    x[32]     c4        908
    x[32]     c5        205
    x[32]     c6        417
    x[32]     c7        352
    x[32]     c1        934
    x[32]     c2        265
    x[32]     OBJ       -591
    x[33]     c3        519
    x[33]     c4        951
    x[33]     c5        941
    x[33]     c6        2
    x[33]     c7        185
    x[33]     c1        129
    x[33]     c2        711
    x[33]     OBJ       -680
    x[34]     c3        728
    x[34]     c4        908
    x[34]     c5        360
    x[34]     c6        671
    x[34]     c7        983
    x[34]     c1        542
    x[34]     c2        204
    x[34]     OBJ       -1419
    x[35]     c3        138
    x[35]     c4        476
    x[35]     c5        190
    x[35]     c6        344
    x[35]     c7        288
    x[35]     c1        767
    x[35]     c2        816
    x[35]     OBJ       -318
    x[36]     c3        92
    x[36]     c4        656
    x[36]     c5        491
    x[36]     c6        298
    x[36]     c7        116
    x[36]     c1        964
    x[36]     c2        595
    x[36]     OBJ       -230
    x[37]     c3        927
    x[37]     c4        716
    x[37]     c5        669
    x[37]     c6        612
    x[37]     c7        125
    x[37]     c1        896
    x[37]     c2        111
    x[37]     OBJ       -930
    x[38]     c3        489
    x[38]     c4        871
    x[38]     c5        824
    x[38]     c6        710
    x[38]     c7        572
    x[38]     c1        350
    x[38]     c2        707
    x[38]     OBJ       -1192
    x[39]     c3        938
    x[39]     c4        631
    x[39]     c5        99
    x[39]     c6        399
    x[39]     c7        63
    x[39]     c1        178
    x[39]     c2        774
    x[39]     OBJ       -844
    x[40]     c3        781
    x[40]     c4        530
    x[40]     c5        549
    x[40]     c6        74
    x[40]     c7        804
    x[40]     c1        557
    x[40]     c2        138
    x[40]     OBJ       -1073
    x[41]     c3        730
    x[41]     c4        326
    x[41]     c5        381
    x[41]     c6        728
    x[41]     c7        24
    x[41]     c1        975
    x[41]     c2        687
    x[41]     OBJ       -278
    x[42]     c3        104
    x[42]     c4        660
    x[42]     c5        252
    x[42]     c6        711
    x[42]     c7        215
    x[42]     c1        70
    x[42]     c2        131
    x[42]     OBJ       -919
    x[43]     c3        618
    x[43]     c4        326
    x[43]     c5        293
    x[43]     c6        714
    x[43]     c7        158
    x[43]     c1        226
    x[43]     c2        279
    x[43]     OBJ       -1072
    x[44]     c3        917
    x[44]     c4        543
    x[44]     c5        747
    x[44]     c6        352
    x[44]     c7        928
    x[44]     c1        356
    x[44]     c2        775
    x[44]     OBJ       -808
    x[45]     c3        7
    x[45]     c4        252
    x[45]     c5        240
    x[45]     c6        842
    x[45]     c7        359
    x[45]     c1        404
    x[45]     c2        191
    x[45]     OBJ       -1072
    x[46]     c3        405
    x[46]     c4        497
    x[46]     c5        835
    x[46]     c6        403
    x[46]     c7        658
    x[46]     c1        79
    x[46]     c2        217
    x[46]     OBJ       -1007
    x[47]     c3        81
    x[47]     c4        619
    x[47]     c5        515
    x[47]     c6        643
    x[47]     c7        381
    x[47]     c1        833
    x[47]     c2        181
    x[47]     OBJ       -746
    x[48]     c3        560
    x[48]     c4        886
    x[48]     c5        435
    x[48]     c6        798
    x[48]     c7        440
    x[48]     c1        616
    x[48]     c2        750
    x[48]     OBJ       -738
    x[49]     c3        617
    x[49]     c4        389
    x[49]     c5        735
    x[49]     c6        955
    x[49]     c7        741
    x[49]     c1        575
    x[49]     c2        890
    x[49]     OBJ       -737
    x[50]     c3        214
    x[50]     c4        177
    x[50]     c5        45
    x[50]     c6        654
    x[50]     c7        445
    x[50]     c1        987
    x[50]     c2        776
    x[50]     OBJ       -342
    x[51]     c3        696
    x[51]     c4        747
    x[51]     c5        461
    x[51]     c6        510
    x[51]     c7        626
    x[51]     c1        340
    x[51]     c2        484
    x[51]     OBJ       -917
    x[52]     c3        4
    x[52]     c4        291
    x[52]     c5        964
    x[52]     c6        111
    x[52]     c7        213
    x[52]     c1        794
    x[52]     c2        655
    x[52]     OBJ       -283
    x[53]     c3        455
    x[53]     c4        927
    x[53]     c5        465
    x[53]     c6        710
    x[53]     c7        464
    x[53]     c1        321
    x[53]     c2        662
    x[53]     OBJ       -808
    x[54]     c3        234
    x[54]     c4        436
    x[54]     c5        978
    x[54]     c6        482
    x[54]     c7        571
    x[54]     c1        337
    x[54]     c2        662
    x[54]     OBJ       -1116
    x[55]     c3        209
    x[55]     c4        597
    x[55]     c5        884
    x[55]     c6        930
    x[55]     c7        848
    x[55]     c1        580
    x[55]     c2        995
    x[55]     OBJ       -526
    x[56]     c3        465
    x[56]     c4        347
    x[56]     c5        553
    x[56]     c6        906
    x[56]     c7        371
    x[56]     c1        920
    x[56]     c2        248
    x[56]     OBJ       -814
    x[57]     c3        348
    x[57]     c4        907
    x[57]     c5        616
    x[57]     c6        621
    x[57]     c7        209
    x[57]     c1        425
    x[57]     c2        718
    x[57]     OBJ       -873
    x[58]     c3        520
    x[58]     c4        173
    x[58]     c5        227
    x[58]     c6        155
    x[58]     c7        693
    x[58]     c1        170
    x[58]     c2        321
    x[58]     OBJ       -1147
    x[59]     c3        474
    x[59]     c4        567
    x[59]     c5        470
    x[59]     c6        597
    x[59]     c7        353
    x[59]     c1        955
    x[59]     c2        533
    x[59]     OBJ       -592
    x[60]     c3        931
    x[60]     c4        543
    x[60]     c5        526
    x[60]     c6        139
    x[60]     c7        440
    x[60]     c1        581
    x[60]     c2        391
    x[60]     OBJ       -795
    x[61]     c3        383
    x[61]     c4        333
    x[61]     c5        644
    x[61]     c6        587
    x[61]     c7        550
    x[61]     c1        739
    x[61]     c2        81
    x[61]     OBJ       -840
    x[62]     c3        585
    x[62]     c4        959
    x[62]     c5        250
    x[62]     c6        239
    x[62]     c7        953
    x[62]     c1        622
    x[62]     c2        253
    x[62]     OBJ       -1089
    x[63]     c3        54
    x[63]     c4        140
    x[63]     c5        749
    x[63]     c6        218
    x[63]     c7        810
    x[63]     c1        473
    x[63]     c2        879
    x[63]     OBJ       -334
    x[64]     c3        232
    x[64]     c4        576
    x[64]     c5        460
    x[64]     c6        852
    x[64]     c7        14
    x[64]     c1        789
    x[64]     c2        540
    x[64]     OBJ       -383
    x[65]     c3        827
    x[65]     c4        644
    x[65]     c5        836
    x[65]     c6        704
    x[65]     c7        114
    x[65]     c1        946
    x[65]     c2        959
    x[65]     OBJ       -562
    x[66]     c3        69
    x[66]     c4        286
    x[66]     c5        122
    x[66]     c6        561
    x[66]     c7        192
    x[66]     c1        499
    x[66]     c2        118
    x[66]     OBJ       -890
    x[67]     c3        511
    x[67]     c4        104
    x[67]     c5        524
    x[67]     c6        257
    x[67]     c7        603
    x[67]     c1        666
    x[67]     c2        989
    x[67]     OBJ       -455
    x[68]     c3        945
    x[68]     c4        63
    x[68]     c5        852
    x[68]     c6        878
    x[68]     c7        391
    x[68]     c1        546
    x[68]     c2        781
    x[68]     OBJ       -862
    x[69]     c3        588
    x[69]     c4        677
    x[69]     c5        648
    x[69]     c6        70
    x[69]     c7        399
    x[69]     c1        630
    x[69]     c2        678
    x[69]     OBJ       -781
    x[70]     c3        961
    x[70]     c4        950
    x[70]     c5        926
    x[70]     c6        802
    x[70]     c7        18
    x[70]     c1        997
    x[70]     c2        787
    x[70]     OBJ       -695
    x[71]     c3        53
    x[71]     c4        351
    x[71]     c5        889
    x[71]     c6        10
    x[71]     c7        531
    x[71]     c1        462
    x[71]     c2        424
    x[71]     OBJ       -599
    x[72]     c3        443
    x[72]     c4        730
    x[72]     c5        302
    x[72]     c6        386
    x[72]     c7        565
    x[72]     c1        750
    x[72]     c2        721
    x[72]     OBJ       -694
    x[73]     c3        534
    x[73]     c4        936
    x[73]     c5        167
    x[73]     c6        462
    x[73]     c7        145
    x[73]     c1        841
    x[73]     c2        623
    x[73]     OBJ       -608
    x[74]     c3        140
    x[74]     c4        175
    x[74]     c5        587
    x[74]     c6        382
    x[74]     c7        226
    x[74]     c1        795
    x[74]     c2        833
    x[74]     OBJ       -313
    x[75]     c3        60
    x[75]     c4        513
    x[75]     c5        321
    x[75]     c6        354
    x[75]     c7        446
    x[75]     c1        2
    x[75]     c2        986
    x[75]     OBJ       -788
    x[76]     c3        692
    x[76]     c4        5
    x[76]     c5        735
    x[76]     c6        733
    x[76]     c7        863
    x[76]     c1        522
    x[76]     c2        141
    x[76]     OBJ       -886
    x[77]     c3        670
    x[77]     c4        87
    x[77]     c5        553
    x[77]     c6        417
    x[77]     c7        994
    x[77]     c1        778
    x[77]     c2        66
    x[77]     OBJ       -911
    x[78]     c3        236
    x[78]     c4        219
    x[78]     c5        877
    x[78]     c6        200
    x[78]     c7        233
    x[78]     c1        42
    x[78]     c2        983
    x[78]     OBJ       -455
    x[79]     c3        762
    x[79]     c4        679
    x[79]     c5        182
    x[79]     c6        785
    x[79]     c7        710
    x[79]     c1        714
    x[79]     c2        449
    x[79]     OBJ       -989
    x[80]     c3        940
    x[80]     c4        86
    x[80]     c5        139
    x[80]     c6        263
    x[80]     c7        851
    x[80]     c1        645
    x[80]     c2        654
    x[80]     OBJ       -466
    x[81]     c3        677
    x[81]     c4        474
    x[81]     c5        308
    x[81]     c6        592
    x[81]     c7        109
    x[81]     c1        855
    x[81]     c2        458
    x[81]     OBJ       -516
    x[82]     c3        483
    x[82]     c4        901
    x[82]     c5        82
    x[82]     c6        573
    x[82]     c7        708
    x[82]     c1        396
    x[82]     c2        675
    x[82]     OBJ       -859
    x[83]     c3        668
    x[83]     c4        641
    x[83]     c5        697
    x[83]     c6        321
    x[83]     c7        930
    x[83]     c1        768
    x[83]     c2        515
    x[83]     OBJ       -960
    x[84]     c3        777
    x[84]     c4        231
    x[84]     c5        800
    x[84]     c6        682
    x[84]     c7        38
    x[84]     c1        392
    x[84]     c2        718
    x[84]     OBJ       -609
    x[85]     c3        575
    x[85]     c4        732
    x[85]     c5        640
    x[85]     c6        186
    x[85]     c7        355
    x[85]     c1        141
    x[85]     c2        486
    x[85]     OBJ       -768
    x[86]     c3        120
    x[86]     c4        954
    x[86]     c5        536
    x[86]     c6        640
    x[86]     c7        501
    x[86]     c1        544
    x[86]     c2        881
    x[86]     OBJ       -815
    x[87]     c3        947
    x[87]     c4        199
    x[87]     c5        520
    x[87]     c6        246
    x[87]     c7        617
    x[87]     c1        847
    x[87]     c2        726
    x[87]     OBJ       -364
    x[88]     c3        296
    x[88]     c4        57
    x[88]     c5        942
    x[88]     c6        611
    x[88]     c7        140
    x[88]     c1        263
    x[88]     c2        386
    x[88]     OBJ       -1120
    x[89]     c3        304
    x[89]     c4        227
    x[89]     c5        833
    x[89]     c6        353
    x[89]     c7        695
    x[89]     c1        325
    x[89]     c2        796
    x[89]     OBJ       -670
    x[90]     c3        543
    x[90]     c4        836
    x[90]     c5        176
    x[90]     c6        419
    x[90]     c7        217
    x[90]     c1        227
    x[90]     c2        229
    x[90]     OBJ       -1155
    x[91]     c3        210
    x[91]     c4        324
    x[91]     c5        502
    x[91]     c6        526
    x[91]     c7        773
    x[91]     c1        765
    x[91]     c2        398
    x[91]     OBJ       -758
    x[92]     c3        772
    x[92]     c4        149
    x[92]     c5        496
    x[92]     c6        867
    x[92]     c7        368
    x[92]     c1        128
    x[92]     c2        335
    x[92]     OBJ       -1298
    x[93]     c3        761
    x[93]     c4        538
    x[93]     c5        671
    x[93]     c6        475
    x[93]     c7        794
    x[93]     c1        10
    x[93]     c2        624
    x[93]     OBJ       -975
    x[94]     c3        448
    x[94]     c4        378
    x[94]     c5        335
    x[94]     c6        616
    x[94]     c7        718
    x[94]     c1        973
    x[94]     c2        283
    x[94]     OBJ       -486
    x[95]     c3        804
    x[95]     c4        321
    x[95]     c5        85
    x[95]     c6        399
    x[95]     c7        887
    x[95]     c1        162
    x[95]     c2        182
    x[95]     OBJ       -1100
    x[96]     c3        432
    x[96]     c4        250
    x[96]     c5        99
    x[96]     c6        586
    x[96]     c7        642
    x[96]     c1        743
    x[96]     c2        589
    x[96]     OBJ       -538
    x[97]     c3        29
    x[97]     c4        30
    x[97]     c5        583
    x[97]     c6        457
    x[97]     c7        701
    x[97]     c1        208
    x[97]     c2        153
    x[97]     OBJ       -995
    x[98]     c3        424
    x[98]     c4        849
    x[98]     c5        496
    x[98]     c6        787
    x[98]     c7        619
    x[98]     c1        223
    x[98]     c2        945
    x[98]     OBJ       -703
    x[99]     c3        71
    x[99]     c4        207
    x[99]     c5        908
    x[99]     c6        139
    x[99]     c7        502
    x[99]     c1        981
    x[99]     c2        272
    x[99]     OBJ       -547
    x[100]    c3        892
    x[100]    c4        774
    x[100]    c5        57
    x[100]    c6        704
    x[100]    c7        524
    x[100]    c1        143
    x[100]    c2        849
    x[100]    OBJ       -1088
RHS
    rhs       c3        36577
    rhs       c4        36182
    rhs       c5        38612
    rhs       c6        37338
    rhs       c7        36798
    rhs       c1        39485
    rhs       c2        40164
RANGES
BOUNDS
 LO bounds    ss[1]     0
 PL bounds    ss[1]
 LO bounds    ss[2]     0
 PL bounds    ss[2]
 MI bounds    s[1]
 UP bounds    s[1]      0
 MI bounds    s[2]
 UP bounds    s[2]      0
 MI bounds    s[3]
 UP bounds    s[3]      0
 MI bounds    s[4]
 UP bounds    s[4]      0
 MI bounds    s[5]
 UP bounds    s[5]      0
 BV bounds    x[1]
 BV bounds    x[2]
 BV bounds    x[3]
 BV bounds    x[4]
 BV bounds    x[5]
 BV bounds    x[6]
 BV bounds    x[7]
 BV bounds    x[8]
 BV bounds    x[9]
 BV bounds    x[10]
 BV bounds    x[11]
 BV bounds    x[12]
 BV bounds    x[13]
 BV bounds    x[14]
 BV bounds    x[15]
 BV bounds    x[16]
 BV bounds    x[17]
 BV bounds    x[18]
 BV bounds    x[19]
 BV bounds    x[20]
 BV bounds    x[21]
 BV bounds    x[22]
 BV bounds    x[23]
 BV bounds    x[24]
 BV bounds    x[25]
 BV bounds    x[26]
 BV bounds    x[27]
 BV bounds    x[28]
 BV bounds    x[29]
 BV bounds    x[30]
 BV bounds    x[31]
 BV bounds    x[32]
 BV bounds    x[33]
 BV bounds    x[34]
 BV bounds    x[35]
 BV bounds    x[36]
 BV bounds    x[37]
 BV bounds    x[38]
 BV bounds    x[39]
 BV bounds    x[40]
 BV bounds    x[41]
 BV bounds    x[42]
 BV bounds    x[43]
 BV bounds    x[44]
 BV bounds    x[45]
 BV bounds    x[46]
 BV bounds    x[47]
 BV bounds    x[48]
 BV bounds    x[49]
 BV bounds    x[50]
 BV bounds    x[51]
 BV bounds    x[52]
 BV bounds    x[53]
 BV bounds    x[54]
 BV bounds    x[55]
 BV bounds    x[56]
 BV bounds    x[57]
 BV bounds    x[58]
 BV bounds    x[59]
 BV bounds    x[60]
 BV bounds    x[61]
 BV bounds    x[62]
 BV bounds    x[63]
 BV bounds    x[64]
 BV bounds    x[65]
 BV bounds    x[66]
 BV bounds    x[67]
 BV bounds    x[68]
 BV bounds    x[69]
 BV bounds    x[70]
 BV bounds    x[71]
 BV bounds    x[72]
 BV bounds    x[73]
 BV bounds    x[74]
 BV bounds    x[75]
 BV bounds    x[76]
 BV bounds    x[77]
 BV bounds    x[78]
 BV bounds    x[79]
 BV bounds    x[80]
 BV bounds    x[81]
 BV bounds    x[82]
 BV bounds    x[83]
 BV bounds    x[84]
 BV bounds    x[85]
 BV bounds    x[86]
 BV bounds    x[87]
 BV bounds    x[88]
 BV bounds    x[89]
 BV bounds    x[90]
 BV bounds    x[91]
 BV bounds    x[92]
 BV bounds    x[93]
 BV bounds    x[94]
 BV bounds    x[95]
 BV bounds    x[96]
 BV bounds    x[97]
 BV bounds    x[98]
 BV bounds    x[99]
 BV bounds    x[100]
ENDATA
